GLPSOL: GLPK LP/MIP Solver, v4.65
Parameter(s) specified in the command line:
 -m production-limits-shorter.mod -d production-limits.dat --log production-limits-shorter.log
Reading model section from production-limits-shorter.mod...
35 lines were read
Reading data section from production-limits.dat...
47 lines were read
Generating Material_Balance...
Generating Production_Limits...
Generating Total_Revenue...
Model has been successfully generated
GLPK Simplex Optimizer, v4.65
8 rows, 3 columns, 17 non-zeros
Preprocessing...
4 rows, 3 columns, 11 non-zeros
Scaling...
 A: min|aij| =  1.000e+00  max|aij| =  4.500e+03  ratio =  4.500e+03
GM: min|aij| =  4.317e-01  max|aij| =  2.317e+00  ratio =  5.367e+00
EQ: min|aij| =  1.863e-01  max|aij| =  1.000e+00  ratio =  5.367e+00
Constructing initial basis...
Size of triangular part is 4
      0: obj =   2.280000000e+04 inf =   1.343e+02 (2)
      3: obj =   2.245387097e+04 inf =   0.000e+00 (0)
*     5: obj =   3.297000000e+04 inf =   5.566e-14 (0)
OPTIMAL LP SOLUTION FOUND
Time used:   0.0 secs
Memory used: 0.1 Mb (134470 bytes)
Total Revenue: 32970
Production of P1: 90
Production of P2: 100
Production of P3: 10
Usage of A: 23000, remaining: 0
Usage of B: 21000, remaining: 10000
Usage of C: 433000, remaining: 17000
Usage of D: 200, remaining: -2.84217e-14
Model has been successfully processed
